[runlim] version:		1.10
[runlim] time limit:		311040000 seconds
[runlim] real time limit:	1800 seconds
[runlim] space limit:		30000 MB
[runlim] argv[0]:		oplrun
[runlim] argv[1]:		-l
[runlim] argv[2]:		3/B-ibm32-ver1.out
[runlim] argv[3]:		CP-CPLEX.mod
[runlim] argv[4]:		B-ibm32.dat
[runlim] start:			Tue Oct  8 10:50:07 2024
[runlim] main pid:		3252
[runlim] log captured:

<<< setup


<<< generate

 ! --------------------------------------------------- CP Optimizer 22.1.1.0 --
 ! Maximization problem - 33 variables, 94 constraints
 ! TimeLimit            = 1800
 ! Initial process time : 0.00s (0.00s extraction + 0.00s propagation)
 !  . Log search space  : 159.0 (before), 159.0 (after)
 !  . Memory usage      : 335.3 kB (before), 335.3 kB (after)
 ! Using parallel search with 8 workers.
 ! ----------------------------------------------------------------------------
 !          Best Branches  Non-fixed    W       Branch decision
                        0         33                 -
 + New bound is 9
                     1000         17    1        21 != labels(25)
                     1000         18    2   F     3  = labels(8)
                     1000         16    3        26 != labels(23)
                     1000         18    4        17 != labels(6)
                     1000         18    5   F    11 != labels(16)
                     1000         18    6   F     8  = labels(2)
                     1000          8    7   F     1  = labels(7)
                     1000         18    8   F    12 != labels(8)
                     2000         13    3   F    10 != labels(2)
                     2000         10    6   F     7  = labels(28)
                     2000         13    1   F     7  = labels(23)
                     2000         13    2   F    32  = labels(4)
                     2000         19    4   F    11  = labels(12)
                     2000         12    8   F    30 != labels(21)
                     2000         21    5   F     3  = labels(7)
                     2000         17    7        27 != labels(30)
                     3000         18    1        13 != labels(11)
                     3000         17    2        15 != labels(16)
                     3000         18    4        17 != labels(19)
 ! Time = 0.06s, Average fail depth = 6, Memory usage = 5.1 MB
 ! Current bound is 9
 !          Best Branches  Non-fixed    W       Branch decision
                     3000         19    8        28  = labels(18)
                     3000         13    3   F     7  = labels(24)
                     3000         17    5   F    27  = labels(24)
                     3000         21    6         5 != labels(24)
                     3000         17    7   F    25  = labels(4)
                     4000         16    1   F    13  = labels(10)
                     4000         14    2   F    11  = labels(26)
                     4000         21    8            -
                     4000         20    3   F    18  = labels(23)
                     4000          6    5   F    29  = labels(10)
                     4000         18    6   F    22  = labels(27)
                     4000         15    7   F     2  = labels(4)
                     5000         11    2   F    19  = labels(31)
                     4000         18    4        32  = labels(5)
                     5000         17    8   F    23  = labels(24)
                     5000         13    1   F     2 != labels(10)
                     5000         15    3            -
                     5000         16    5        14  = labels(30)
                     5000         18    6        30  = labels(19)
                     5000         20    7   F    25  = labels(17)
 ! Time = 0.09s, Average fail depth = 6, Memory usage = 5.6 MB
 ! Current bound is 9
 !          Best Branches  Non-fixed    W       Branch decision
                     6000          9    2        12 != labels(3)
                     5000         20    4        31  = labels(23)
                     6000         13    8            -
                     6000         14    1        23 != labels(1)
                     6000         21    3   F    22 != labels(9)
                     6000         19    5            -
                     6000         14    6        22 != labels(17)
                     6000         15    7         7  = labels(13)
                     6000         18    4        16  = labels(15)
                     7000         21    8         6 != labels(14)
                     7000         10    1        21 != labels(27)
                     7000         15    2        24 != labels(7)
                     7000         18    3   F    23 != labels(13)
                     7000         14    5   F    12  = labels(29)
                     7000         18    6   F    21 != labels(18)
                     7000         13    4        22 != labels(5)
                     7000         15    7        15 != labels(9)
                     8000         16    8        22  = labels(8)
                     8000         10    1        31  = labels(21)
                     8000         18    3        13 != labels(32)
 ! Time = 0.11s, Average fail depth = 7, Memory usage = 6.0 MB
 ! Current bound is 9
 !          Best Branches  Non-fixed    W       Branch decision
                     8000         11    4   F     2  = labels(30)
                     8000         18    5   F        -
                     8000         11    6   F    11 != labels(25)
                     8000         17    7        26 != labels(28)
                     8000         16    2        29  = labels(8)
                     9000         23    3   F    30 != labels(24)
                     9000          4    4        11 != labels(18)
                     9000         13    5   F     1  = labels(4)
                     9000         12    6   F        -
                     9000         10    7        19  = labels(22)
                     9000         22    8            -
                     9000          6    1        26 != labels(18)
                     9000         11    2        17 != labels(10)
                    10000         18    3   F    15  = labels(20)
                    10000          4    4   F    31  = labels(31)
                    10000         17    5   F     3 != labels(9)
                    10000         19    6   F    29  = labels(13)
                    10000         10    7        10  = labels(24)
                    10000         21    8   F     4  = labels(23)
                    10000          7    1   F     7  = labels(20)
 ! Time = 0.13s, Average fail depth = 6, Memory usage = 6.0 MB
 ! Current bound is 9
 !          Best Branches  Non-fixed    W       Branch decision
                    10000         19    2        28 != labels(23)
                    11000         20    3        21 != labels(20)
                    11000          4    4        29 != labels(12)
                    11000         20    5            -
                    11000         12    6   F    24  = labels(7)
                    11000         11    7   F    30 != labels(28)
                    11000         12    8   F    23 != labels(29)
                    11000          7    1   F    29  = labels(18)
                    11000          6    2         3 != labels(31)
                    12000         12    3        12 != labels(14)
                    12000          5    4   F    30 != labels(17)
                    12000         18    5   F     1 != labels(26)
                    12000         20    6   F    25  = labels(17)
                    12000         10    7   F    16  = labels(9)
                    12000         14    8   F     2 != labels(32)
                    12000          6    1        27 != labels(24)
                    13000         19    3   F     5  = labels(5)
                    13000          5    4   F    13  = labels(29)
                    13000         21    5   F     4  = labels(22)
                    13000         17    6         2 != labels(11)
 ! Time = 0.17s, Average fail depth = 6, Memory usage = 6.0 MB
 ! Current bound is 9
 !          Best Branches  Non-fixed    W       Branch decision
                    13000         22    8   F        -
                    13000          6    1   F    29  = labels(2)
                    12000          6    2        14 != labels(20)
                    13000         19    7   F    10  = labels(2)
                    14000         13    8        27 != labels(1)
                    14000          9    1   F    15 != labels(23)
                    13000          6    2        12 != labels(15)
                    14000         19    3   F     8  = labels(4)
                    14000         19    5   F        -
                    14000         20    6   F    21  = labels(9)
                    14000         18    4   F    16  = labels(6)
                    15000          6    8   F    24  = labels(22)
                    14000          6    2        19 != labels(19)
                    15000         18    3   F    23  = labels(11)
                    15000         19    4   F    12  = labels(29)
                    15000         22    5   F     3  = labels(17)
                    15000         19    6        17 != labels(30)
                    14000         18    7   F    32  = labels(9)
                    16000         12    8            -
                    15000          6    1        22 != labels(32)
 ! Time = 0.20s, Average fail depth = 6, Memory usage = 6.2 MB
 ! Current bound is 9
 !          Best Branches  Non-fixed    W       Branch decision
                    15000         18    2        11 != labels(30)
                    16000         17    3        20 != labels(20)
                    16000         19    4   F    20  = labels(7)
                    16000         17    5   F    14 != labels(16)
                    16000         11    6   F    12  = labels(21)
                    15000         16    7        13 != labels(19)
                    17000         19    8        15  = labels(2)
                    16000         18    1        31 != labels(5)
                    17000         17    3   F    12  = labels(30)
                    17000         20    5   F    11  = labels(24)
                    17000         18    6   F        -
                    16000         20    7   F    22  = labels(19)
                    16000         13    2   F    15  = labels(27)
                    17000         16    4   F    31 != labels(12)
                    18000         17    8            -
                    17000         14    1        20 != labels(10)
                    18000         13    3   F     7 != labels(16)
                    18000         19    5   F     1  = labels(28)
                    18000         17    6   F    13  = labels(30)
                    17000         18    2        18 != labels(30)
 ! Time = 0.22s, Average fail depth = 6, Memory usage = 6.6 MB
 ! Current bound is 9
 !          Best Branches  Non-fixed    W       Branch decision
                    18000         13    4        11 != labels(26)
                    17000         21    7        13  = labels(20)
                    19000         19    8            -
                    19000         21    3        10 != labels(26)
                    19000         19    5   F    11 != labels(22)
                    19000         18    6        17 != labels(10)
                    18000          8    7        20 != labels(18)
                    18000         17    1         2 != labels(11)
                    18000         17    2        12 != labels(20)
                    20000         18    8         2  = labels(27)
                    20000         10    3   F     3 != labels(4)
                    19000         19    4   F    32  = labels(17)
                    20000         12    6   F    20  = labels(2)
                    19000          4    1   F    20  = labels(25)
                    19000         17    2        29 != labels(22)
                    19000         20    7   F    31  = labels(24)
                    21000         21    8        26 != labels(30)
                    21000         18    3            -
                    20000         14    5            -
                    21000         18    6        13  = labels(22)
 ! Time = 0.25s, Average fail depth = 6, Memory usage = 6.4 MB
 ! Current bound is 9
 !          Best Branches  Non-fixed    W       Branch decision
                    20000         18    1        15 != labels(21)
                    20000         19    2   F    18 != labels(30)
                    20000         19    4   F     2  = labels(4)
                    22000         20    8   F        -
                    21000          7    1        27 != labels(21)
                    22000         17    3   F        -
                    21000         12    5   F    28  = labels(1)
                    22000         22    6            -
                    20000         10    7   F     6  = labels(11)
                    21000         15    2        18 != labels(30)
                    21000          9    4        24 != labels(27)
                    23000         20    8   F    19 != labels(7)
                    23000         19    3   F    23  = labels(27)
                    22000         18    5   F    29  = labels(23)
                    23000         12    6   F    24  = labels(13)
                    21000         10    7        17 != labels(2)
                    22000         16    1   F    23  = labels(5)
                    22000         11    2        16  = labels(27)
                    22000         11    4   F    29 != labels(12)
                    24000         15    8   F        -
 ! Time = 0.29s, Average fail depth = 6, Memory usage = 6.5 MB
 ! Current bound is 9
 !          Best Branches  Non-fixed    W       Branch decision
                    24000         20    3         3  = labels(4)
                    23000         18    5        17 != labels(13)
                    23000         19    1        26  = labels(27)
                    23000         15    2        10 != labels(5)
                    23000         10    4   F    32  = labels(9)
                    22000         20    7        19 != labels(27)
                    25000         19    8   F     3 != labels(24)
                    25000         21    3         7 != labels(13)
                    24000         16    5            -
                    24000         12    6   F    10 != labels(26)
                    24000         18    1         3  = labels(3)
                    24000         18    2         3 != labels(14)
                    23000         14    7   F    20  = labels(2)
                    26000         15    8   F    19  = labels(12)
                    26000         19    3   F     6  = labels(21)
                    25000         18    5        13 != labels(30)
                    25000         17    6   F    32  = labels(26)
                    25000         17    2   F    28  = labels(22)
                    24000         10    4   F    22  = labels(3)
                    24000         13    7   F    22  = labels(10)
 ! Time = 0.32s, Average fail depth = 6, Memory usage = 6.6 MB
 ! Current bound is 9
 !          Best Branches  Non-fixed    W       Branch decision
                    27000         15    8        21  = labels(22)
                    25000         17    1   F    23  = labels(22)
                    27000         10    3            -
                    25000         10    4   F    24  = labels(7)
                    26000         17    5            -
                    26000         21    6         2 != labels(29)
                    26000         11    2   F    28 != labels(22)
                    25000         15    7         6 != labels(19)
                    28000         20    3        18  = labels(18)
                    26000          4    4        13 != labels(8)
                    27000         21    5   F    13  = labels(8)
                    27000         19    6   F    18  = labels(19)
                    26000         19    1        18 != labels(21)
 *             9    26060  0.34s        2      (gap is 0.00%)
 ! ----------------------------------------------------------------------------
 ! Search completed, 1 solution found.
 ! Best objective         : 9 (optimal - effective tol. is 0)
 ! Best bound             : 9
 ! ----------------------------------------------------------------------------
 ! Number of branches     : 215580
 ! Number of fails        : 106315
 ! Total memory usage     : 8.5 MB (8.2 MB CP Optimizer + 0.4 MB Concert)
 ! Time spent in solve    : 0.34s (0.34s engine + 0.00s extraction)
 ! Search speed (br. / s) : 653272.7
 ! ----------------------------------------------------------------------------

<<< solve


OBJECTIVE: 9
Objective value (b): 9
Labels:  [19 9 12 6 11 23 29 17 24 15 13 1 5 10 14 7 26 16 31 2 18 28 25 20 22 32 27
     30 4 3 21 8]
Vertex with maximum degree: 16

<<< post process


<<< done


<<< engine log: 3/B-ibm32-ver1.out

[runlim] end:			Tue Oct  8 10:50:07 2024
[runlim] status:		ok
[runlim] result:		0
[runlim] children:		0
[runlim] real:			0.39 seconds
[runlim] time:			1.77 seconds
[runlim] space:			41.3 MB
[runlim] samples:		3
